Maximize
  - 4.495678687773 edge_0_1_0_0 - 2.5066380386674 edge_0_2_0_0
   - 0.11157759753552 edge_0_3_0_0 - 4.731696628644301 edge_0_4_0_0
   - 1.947580780911 edge_0_7_0_0 - 1.9937337893704 edge_0_9_0_0
   - 2.5685057411864 edge_0_12_0_0 - 3.2352332152 edge_0_14_0_0
   - 3.3761384098092 edge_0_15_0_0 - 2.8636809667034 edge_0_16_0_0
   + 0.2976910545175067 edge_1_2_0_0 + 0.3623172530878244 edge_1_3_0_0
   - 0.085913473348437 edge_1_4_0_0 - 0.4863592039228798 edge_1_7_0_0
   - 1.436489938980042 edge_1_9_0_0 - 0.2857127804795946 edge_1_11_0_0
   - 0.6030262008421454 edge_1_12_0_0 + 0.3465534370922 edge_1_16_0_0
   + 0.3403010265958034 edge_2_1_0_0 + 0.8307192641338963 edge_2_3_0_0
   + 0.3396636869355952 edge_2_4_0_0 + 0.3555865616831017 edge_2_7_0_0
   - 0.1507920341002708 edge_2_9_0_0 - 0.2028108706597512 edge_2_11_0_0
   - 0.6714960038584169 edge_2_12_0_0 - 0.6192042734470011 edge_2_15_0_0
   - 0.1651605291522 edge_2_16_0_0 + 2.606919133209666 edge_3_1_0_0
   + 3.187256849719532 edge_3_2_0_0 + 2.32071199167906 edge_3_4_0_0
   + 1.392448656074541 edge_3_7_0_0 - 0.1687969836896095 edge_3_8_0_0
   + 0.638486798743285 edge_3_9_0_0 + 2.136069476793332 edge_3_11_0_0
   + 1.042575282083751 edge_3_12_0_0 + 0.2267404229530916 edge_3_14_0_0
   + 0.1371075346554812 edge_3_15_0_0 + 2.9437196467536 edge_3_16_0_0
   - 1.020698753295147 edge_4_1_0_0 - 0.4671648074502279 edge_4_3_0_0
   + 0.088900969282439 edge_4_7_0_0 + 0.5763483595349439 edge_7_1_0_0
   + 0.7997505175565423 edge_7_2_0_0 + 0.7910312772841226 edge_7_3_0_0
   + 0.2841897198261369 edge_7_4_0_0 + 0.7276080689518593 edge_7_8_0_0
   + 2.1660011747792 edge_7_9_0_0 + 2.391620268367268 edge_7_11_0_0
   + 1.33182279030324 edge_7_12_0_0 + 0.1178894464286121 edge_7_14_0_0
   + 0.4646674425078622 edge_7_15_0_0 + 3.2231326290111 edge_7_16_0_0
   - 1.576782905468529 edge_8_3_0_0 - 0.7407899932514698 edge_8_4_0_0
   - 0.7372109488115491 edge_8_7_0_0 - 0.1421868923840321 edge_8_9_0_0
   - 0.0569425300086948 edge_8_11_0_0 - 0.2794294403967688 edge_8_12_0_0
   + 0.423737475044488 edge_9_1_0_0 + 0.6383221750028512 edge_9_2_0_0
   + 0.1374923281691386 edge_9_3_0_0 + 1.063727924619795 edge_9_4_0_0
   + 1.011323280340953 edge_9_7_0_0 + 3.382140475271212 edge_9_8_0_0
   + 2.538891632888333 edge_9_9_0_0 + 1.298115115639737 edge_9_11_0_0
   + 0.6298658297548743 edge_9_12_0_0 + 0.2529078923653754 edge_9_14_0_0
   + 0.3829771028622349 edge_9_15_0_0 + 1.5984012399781 edge_9_16_0_0
   - 0.424531358304985 edge_11_2_0_0 - 0.9890499418189423 edge_11_4_0_0
   - 0.4083346981878602 edge_11_9_0_0 - 0.2301403001353517 edge_11_11_0_0
   + 0.1082132648991613 edge_11_12_0_0 + 0.27348077970099 edge_11_16_0_0
   - 0.353002942512042 edge_12_1_0_0 - 0.6628371219707754 edge_12_2_0_0
   - 0.647372989604032 edge_12_3_0_0 - 0.7704884685771108 edge_12_4_0_0
   - 0.4570851522305455 edge_12_7_0_0 - 0.2049623541333969 edge_12_9_0_0
   + 0.097030973258537 edge_12_11_0_0 + 0.7894951968338901 edge_12_15_0_0
   + 0.3928005228991601 edge_12_16_0_0 - 0.00121186693387946 edge_14_3_0_0
   + 0.4570976572288153 edge_14_7_0_0 + 1.028672026189919 edge_14_9_0_0
   + 1.664586168119621 edge_14_15_0_0 + 0.613225577798497 edge_14_16_0_0
   - 0.8232582814120671 edge_15_2_0_0 - 0.5757998477118279 edge_15_3_0_0
   - 1.257095843275221 edge_15_4_0_0 - 0.0803113413901937 edge_15_7_0_0
   + 0.3832422647737582 edge_15_9_0_0 + 0.769888622062099 edge_15_11_0_0
   + 0.1467130040112313 edge_15_12_0_0 + 0.5256981822689422 edge_15_14_0_0
   + 0.1905945830965468 edge_15_16_0_0 - 0.2482911269249878 edge_16_9_0_0
   - 0.36582349310464 edge_16_12_0_0 - 0.5946186981423144 edge_16_14_0_0
   - 0.2193307699017424 edge_16_15_0_0
Subject To
 one_parent_1: edge_0_1_0_0 + edge_2_1_0_0 + edge_3_1_0_0 + edge_4_1_0_0
   + edge_7_1_0_0 + edge_9_1_0_0 + edge_12_1_0_0 = 1
 consume_one_flow_unit_1: flow_0_1_0_0 - flow_1_2_0_0 - flow_1_3_0_0
   - flow_1_4_0_0 - flow_1_7_0_0 - flow_1_9_0_0 - flow_1_11_0_0
   - flow_1_12_0_0 - flow_1_16_0_0 + flow_2_1_0_0 + flow_3_1_0_0
   + flow_4_1_0_0 + flow_7_1_0_0 + flow_9_1_0_0 + flow_12_1_0_0 = 1
 one_parent_2: edge_0_2_0_0 + edge_1_2_0_0 + edge_3_2_0_0 + edge_7_2_0_0
   + edge_9_2_0_0 + edge_11_2_0_0 + edge_12_2_0_0 + edge_15_2_0_0 = 1
 consume_one_flow_unit_2: flow_0_2_0_0 + flow_1_2_0_0 - flow_2_1_0_0
   - flow_2_3_0_0 - flow_2_4_0_0 - flow_2_7_0_0 - flow_2_9_0_0
   - flow_2_11_0_0 - flow_2_12_0_0 - flow_2_15_0_0 - flow_2_16_0_0
   + flow_3_2_0_0 + flow_7_2_0_0 + flow_9_2_0_0 + flow_11_2_0_0
   + flow_12_2_0_0 + flow_15_2_0_0 = 1
 one_parent_3: edge_0_3_0_0 + edge_1_3_0_0 + edge_2_3_0_0 + edge_4_3_0_0
   + edge_7_3_0_0 + edge_8_3_0_0 + edge_9_3_0_0 + edge_12_3_0_0
   + edge_14_3_0_0 + edge_15_3_0_0 = 1
 consume_one_flow_unit_3: flow_0_3_0_0 + flow_1_3_0_0 + flow_2_3_0_0
   - flow_3_1_0_0 - flow_3_2_0_0 - flow_3_4_0_0 - flow_3_7_0_0
   - flow_3_8_0_0 - flow_3_9_0_0 - flow_3_11_0_0 - flow_3_12_0_0
   - flow_3_14_0_0 - flow_3_15_0_0 - flow_3_16_0_0 + flow_4_3_0_0
   + flow_7_3_0_0 + flow_8_3_0_0 + flow_9_3_0_0 + flow_12_3_0_0
   + flow_14_3_0_0 + flow_15_3_0_0 = 1
 one_parent_4: edge_0_4_0_0 + edge_1_4_0_0 + edge_2_4_0_0 + edge_3_4_0_0
   + edge_7_4_0_0 + edge_8_4_0_0 + edge_9_4_0_0 + edge_11_4_0_0
   + edge_12_4_0_0 + edge_15_4_0_0 = 1
 consume_one_flow_unit_4: flow_0_4_0_0 + flow_1_4_0_0 + flow_2_4_0_0
   + flow_3_4_0_0 - flow_4_1_0_0 - flow_4_3_0_0 - flow_4_7_0_0
   + flow_7_4_0_0 + flow_8_4_0_0 + flow_9_4_0_0 + flow_11_4_0_0
   + flow_12_4_0_0 + flow_15_4_0_0 = 1
 one_parent_5: = 1
 consume_one_flow_unit_5: = 1
 one_parent_6: = 1
 consume_one_flow_unit_6: = 1
 one_parent_7: edge_0_7_0_0 + edge_1_7_0_0 + edge_2_7_0_0 + edge_3_7_0_0
   + edge_4_7_0_0 + edge_8_7_0_0 + edge_9_7_0_0 + edge_12_7_0_0
   + edge_14_7_0_0 + edge_15_7_0_0 = 1
 consume_one_flow_unit_7: flow_0_7_0_0 + flow_1_7_0_0 + flow_2_7_0_0
   + flow_3_7_0_0 + flow_4_7_0_0 - flow_7_1_0_0 - flow_7_2_0_0
   - flow_7_3_0_0 - flow_7_4_0_0 - flow_7_8_0_0 - flow_7_9_0_0
   - flow_7_11_0_0 - flow_7_12_0_0 - flow_7_14_0_0 - flow_7_15_0_0
   - flow_7_16_0_0 + flow_8_7_0_0 + flow_9_7_0_0 + flow_12_7_0_0
   + flow_14_7_0_0 + flow_15_7_0_0 = 1
 one_parent_8: edge_3_8_0_0 + edge_7_8_0_0 + edge_9_8_0_0 = 1
 consume_one_flow_unit_8: flow_3_8_0_0 + flow_7_8_0_0 - flow_8_3_0_0
   - flow_8_4_0_0 - flow_8_7_0_0 - flow_8_9_0_0 - flow_8_11_0_0
   - flow_8_12_0_0 + flow_9_8_0_0 = 1
 one_parent_9: edge_0_9_0_0 + edge_1_9_0_0 + edge_2_9_0_0 + edge_3_9_0_0
   + edge_7_9_0_0 + edge_8_9_0_0 + edge_9_9_0_0 + edge_11_9_0_0
   + edge_12_9_0_0 + edge_14_9_0_0 + edge_15_9_0_0 + edge_16_9_0_0 = 1
 consume_one_flow_unit_9: flow_0_9_0_0 + flow_1_9_0_0 + flow_2_9_0_0
   + flow_3_9_0_0 + flow_7_9_0_0 + flow_8_9_0_0 - flow_9_1_0_0
   - flow_9_2_0_0 - flow_9_3_0_0 - flow_9_4_0_0 - flow_9_7_0_0
   - flow_9_8_0_0 - flow_9_11_0_0 - flow_9_12_0_0 - flow_9_14_0_0
   - flow_9_15_0_0 - flow_9_16_0_0 + flow_11_9_0_0 + flow_12_9_0_0
   + flow_14_9_0_0 + flow_15_9_0_0 + flow_16_9_0_0 = 1
 one_parent_10: = 1
 consume_one_flow_unit_10: = 1
 one_parent_11: edge_1_11_0_0 + edge_2_11_0_0 + edge_3_11_0_0
   + edge_7_11_0_0 + edge_8_11_0_0 + edge_9_11_0_0 + edge_11_11_0_0
   + edge_12_11_0_0 + edge_15_11_0_0 = 1
 consume_one_flow_unit_11: flow_1_11_0_0 + flow_2_11_0_0 + flow_3_11_0_0
   + flow_7_11_0_0 + flow_8_11_0_0 + flow_9_11_0_0 - flow_11_2_0_0
   - flow_11_4_0_0 - flow_11_9_0_0 - flow_11_12_0_0 - flow_11_16_0_0
   + flow_12_11_0_0 + flow_15_11_0_0 = 1
 one_parent_12: edge_0_12_0_0 + edge_1_12_0_0 + edge_2_12_0_0
   + edge_3_12_0_0 + edge_7_12_0_0 + edge_8_12_0_0 + edge_9_12_0_0
   + edge_11_12_0_0 + edge_15_12_0_0 + edge_16_12_0_0 = 1
 consume_one_flow_unit_12: flow_0_12_0_0 + flow_1_12_0_0 + flow_2_12_0_0
   + flow_3_12_0_0 + flow_7_12_0_0 + flow_8_12_0_0 + flow_9_12_0_0
   + flow_11_12_0_0 - flow_12_1_0_0 - flow_12_2_0_0 - flow_12_3_0_0
   - flow_12_4_0_0 - flow_12_7_0_0 - flow_12_9_0_0 - flow_12_11_0_0
   - flow_12_15_0_0 - flow_12_16_0_0 + flow_15_12_0_0 + flow_16_12_0_0 = 1
 one_parent_13: = 1
 consume_one_flow_unit_13: = 1
 one_parent_14: edge_0_14_0_0 + edge_3_14_0_0 + edge_7_14_0_0
   + edge_9_14_0_0 + edge_15_14_0_0 + edge_16_14_0_0 = 1
 consume_one_flow_unit_14: flow_0_14_0_0 + flow_3_14_0_0 + flow_7_14_0_0
   + flow_9_14_0_0 - flow_14_3_0_0 - flow_14_7_0_0 - flow_14_9_0_0
   - flow_14_15_0_0 - flow_14_16_0_0 + flow_15_14_0_0 + flow_16_14_0_0 = 1
 one_parent_15: edge_0_15_0_0 + edge_2_15_0_0 + edge_3_15_0_0
   + edge_7_15_0_0 + edge_9_15_0_0 + edge_12_15_0_0 + edge_14_15_0_0
   + edge_16_15_0_0 = 1
 consume_one_flow_unit_15: flow_0_15_0_0 + flow_2_15_0_0 + flow_3_15_0_0
   + flow_7_15_0_0 + flow_9_15_0_0 + flow_12_15_0_0 + flow_14_15_0_0
   - flow_15_2_0_0 - flow_15_3_0_0 - flow_15_4_0_0 - flow_15_7_0_0
   - flow_15_9_0_0 - flow_15_11_0_0 - flow_15_12_0_0 - flow_15_14_0_0
   - flow_15_16_0_0 + flow_16_15_0_0 = 1
 one_parent_16: edge_0_16_0_0 + edge_1_16_0_0 + edge_2_16_0_0
   + edge_3_16_0_0 + edge_7_16_0_0 + edge_9_16_0_0 + edge_11_16_0_0
   + edge_12_16_0_0 + edge_14_16_0_0 + edge_15_16_0_0 = 1
 consume_one_flow_unit_16: flow_0_16_0_0 + flow_1_16_0_0 + flow_2_16_0_0
   + flow_3_16_0_0 + flow_7_16_0_0 + flow_9_16_0_0 + flow_11_16_0_0
   + flow_12_16_0_0 + flow_14_16_0_0 + flow_15_16_0_0 - flow_16_9_0_0
   - flow_16_12_0_0 - flow_16_14_0_0 - flow_16_15_0_0 = 1
 root_flow: flow_0_1_0_0 + flow_0_2_0_0 + flow_0_3_0_0 + flow_0_4_0_0
   + flow_0_7_0_0 + flow_0_9_0_0 + flow_0_12_0_0 + flow_0_14_0_0
   + flow_0_15_0_0 + flow_0_16_0_0 = 16
 inactive_no_flow_0_1_0_0: flow_0_1_0_0 - 1000 edge_0_1_0_0 <= 0
 inactive_no_flow_0_2_0_0: flow_0_2_0_0 - 1000 edge_0_2_0_0 <= 0
 inactive_no_flow_0_3_0_0: flow_0_3_0_0 - 1000 edge_0_3_0_0 <= 0
 inactive_no_flow_0_4_0_0: flow_0_4_0_0 - 1000 edge_0_4_0_0 <= 0
 inactive_no_flow_0_7_0_0: flow_0_7_0_0 - 1000 edge_0_7_0_0 <= 0
 inactive_no_flow_0_9_0_0: flow_0_9_0_0 - 1000 edge_0_9_0_0 <= 0
 inactive_no_flow_0_12_0_0: flow_0_12_0_0 - 1000 edge_0_12_0_0 <= 0
 inactive_no_flow_0_14_0_0: flow_0_14_0_0 - 1000 edge_0_14_0_0 <= 0
 inactive_no_flow_0_15_0_0: flow_0_15_0_0 - 1000 edge_0_15_0_0 <= 0
 inactive_no_flow_0_16_0_0: flow_0_16_0_0 - 1000 edge_0_16_0_0 <= 0
 inactive_no_flow_1_2_0_0: flow_1_2_0_0 - 1000 edge_1_2_0_0 <= 0
 inactive_no_flow_1_3_0_0: flow_1_3_0_0 - 1000 edge_1_3_0_0 <= 0
 inactive_no_flow_1_4_0_0: flow_1_4_0_0 - 1000 edge_1_4_0_0 <= 0
 inactive_no_flow_1_7_0_0: flow_1_7_0_0 - 1000 edge_1_7_0_0 <= 0
 inactive_no_flow_1_9_0_0: flow_1_9_0_0 - 1000 edge_1_9_0_0 <= 0
 inactive_no_flow_1_11_0_0: flow_1_11_0_0 - 1000 edge_1_11_0_0 <= 0
 inactive_no_flow_1_12_0_0: flow_1_12_0_0 - 1000 edge_1_12_0_0 <= 0
 inactive_no_flow_1_16_0_0: flow_1_16_0_0 - 1000 edge_1_16_0_0 <= 0
 inactive_no_flow_2_1_0_0: flow_2_1_0_0 - 1000 edge_2_1_0_0 <= 0
 inactive_no_flow_2_3_0_0: flow_2_3_0_0 - 1000 edge_2_3_0_0 <= 0
 inactive_no_flow_2_4_0_0: flow_2_4_0_0 - 1000 edge_2_4_0_0 <= 0
 inactive_no_flow_2_7_0_0: flow_2_7_0_0 - 1000 edge_2_7_0_0 <= 0
 inactive_no_flow_2_9_0_0: flow_2_9_0_0 - 1000 edge_2_9_0_0 <= 0
 inactive_no_flow_2_11_0_0: flow_2_11_0_0 - 1000 edge_2_11_0_0 <= 0
 inactive_no_flow_2_12_0_0: flow_2_12_0_0 - 1000 edge_2_12_0_0 <= 0
 inactive_no_flow_2_15_0_0: flow_2_15_0_0 - 1000 edge_2_15_0_0 <= 0
 inactive_no_flow_2_16_0_0: flow_2_16_0_0 - 1000 edge_2_16_0_0 <= 0
 inactive_no_flow_3_1_0_0: flow_3_1_0_0 - 1000 edge_3_1_0_0 <= 0
 inactive_no_flow_3_2_0_0: flow_3_2_0_0 - 1000 edge_3_2_0_0 <= 0
 inactive_no_flow_3_4_0_0: flow_3_4_0_0 - 1000 edge_3_4_0_0 <= 0
 inactive_no_flow_3_7_0_0: flow_3_7_0_0 - 1000 edge_3_7_0_0 <= 0
 inactive_no_flow_3_8_0_0: flow_3_8_0_0 - 1000 edge_3_8_0_0 <= 0
 inactive_no_flow_3_9_0_0: flow_3_9_0_0 - 1000 edge_3_9_0_0 <= 0
 inactive_no_flow_3_11_0_0: flow_3_11_0_0 - 1000 edge_3_11_0_0 <= 0
 inactive_no_flow_3_12_0_0: flow_3_12_0_0 - 1000 edge_3_12_0_0 <= 0
 inactive_no_flow_3_14_0_0: flow_3_14_0_0 - 1000 edge_3_14_0_0 <= 0
 inactive_no_flow_3_15_0_0: flow_3_15_0_0 - 1000 edge_3_15_0_0 <= 0
 inactive_no_flow_3_16_0_0: flow_3_16_0_0 - 1000 edge_3_16_0_0 <= 0
 inactive_no_flow_4_1_0_0: flow_4_1_0_0 - 1000 edge_4_1_0_0 <= 0
 inactive_no_flow_4_3_0_0: flow_4_3_0_0 - 1000 edge_4_3_0_0 <= 0
 inactive_no_flow_4_7_0_0: flow_4_7_0_0 - 1000 edge_4_7_0_0 <= 0
 inactive_no_flow_7_1_0_0: flow_7_1_0_0 - 1000 edge_7_1_0_0 <= 0
 inactive_no_flow_7_2_0_0: flow_7_2_0_0 - 1000 edge_7_2_0_0 <= 0
 inactive_no_flow_7_3_0_0: flow_7_3_0_0 - 1000 edge_7_3_0_0 <= 0
 inactive_no_flow_7_4_0_0: flow_7_4_0_0 - 1000 edge_7_4_0_0 <= 0
 inactive_no_flow_7_8_0_0: flow_7_8_0_0 - 1000 edge_7_8_0_0 <= 0
 inactive_no_flow_7_9_0_0: flow_7_9_0_0 - 1000 edge_7_9_0_0 <= 0
 inactive_no_flow_7_11_0_0: flow_7_11_0_0 - 1000 edge_7_11_0_0 <= 0
 inactive_no_flow_7_12_0_0: flow_7_12_0_0 - 1000 edge_7_12_0_0 <= 0
 inactive_no_flow_7_14_0_0: flow_7_14_0_0 - 1000 edge_7_14_0_0 <= 0
 inactive_no_flow_7_15_0_0: flow_7_15_0_0 - 1000 edge_7_15_0_0 <= 0
 inactive_no_flow_7_16_0_0: flow_7_16_0_0 - 1000 edge_7_16_0_0 <= 0
 inactive_no_flow_8_3_0_0: flow_8_3_0_0 - 1000 edge_8_3_0_0 <= 0
 inactive_no_flow_8_4_0_0: flow_8_4_0_0 - 1000 edge_8_4_0_0 <= 0
 inactive_no_flow_8_7_0_0: flow_8_7_0_0 - 1000 edge_8_7_0_0 <= 0
 inactive_no_flow_8_9_0_0: flow_8_9_0_0 - 1000 edge_8_9_0_0 <= 0
 inactive_no_flow_8_11_0_0: flow_8_11_0_0 - 1000 edge_8_11_0_0 <= 0
 inactive_no_flow_8_12_0_0: flow_8_12_0_0 - 1000 edge_8_12_0_0 <= 0
 inactive_no_flow_9_1_0_0: flow_9_1_0_0 - 1000 edge_9_1_0_0 <= 0
 inactive_no_flow_9_2_0_0: flow_9_2_0_0 - 1000 edge_9_2_0_0 <= 0
 inactive_no_flow_9_3_0_0: flow_9_3_0_0 - 1000 edge_9_3_0_0 <= 0
 inactive_no_flow_9_4_0_0: flow_9_4_0_0 - 1000 edge_9_4_0_0 <= 0
 inactive_no_flow_9_7_0_0: flow_9_7_0_0 - 1000 edge_9_7_0_0 <= 0
 inactive_no_flow_9_8_0_0: flow_9_8_0_0 - 1000 edge_9_8_0_0 <= 0
 inactive_no_flow_9_9_0_0: flow_9_9_0_0 - 1000 edge_9_9_0_0 <= 0
 inactive_no_flow_9_11_0_0: flow_9_11_0_0 - 1000 edge_9_11_0_0 <= 0
 inactive_no_flow_9_12_0_0: flow_9_12_0_0 - 1000 edge_9_12_0_0 <= 0
 inactive_no_flow_9_14_0_0: flow_9_14_0_0 - 1000 edge_9_14_0_0 <= 0
 inactive_no_flow_9_15_0_0: flow_9_15_0_0 - 1000 edge_9_15_0_0 <= 0
 inactive_no_flow_9_16_0_0: flow_9_16_0_0 - 1000 edge_9_16_0_0 <= 0
 inactive_no_flow_11_2_0_0: flow_11_2_0_0 - 1000 edge_11_2_0_0 <= 0
 inactive_no_flow_11_4_0_0: flow_11_4_0_0 - 1000 edge_11_4_0_0 <= 0
 inactive_no_flow_11_9_0_0: flow_11_9_0_0 - 1000 edge_11_9_0_0 <= 0
 inactive_no_flow_11_11_0_0: flow_11_11_0_0 - 1000 edge_11_11_0_0 <= 0
 inactive_no_flow_11_12_0_0: flow_11_12_0_0 - 1000 edge_11_12_0_0 <= 0
 inactive_no_flow_11_16_0_0: flow_11_16_0_0 - 1000 edge_11_16_0_0 <= 0
 inactive_no_flow_12_1_0_0: flow_12_1_0_0 - 1000 edge_12_1_0_0 <= 0
 inactive_no_flow_12_2_0_0: flow_12_2_0_0 - 1000 edge_12_2_0_0 <= 0
 inactive_no_flow_12_3_0_0: flow_12_3_0_0 - 1000 edge_12_3_0_0 <= 0
 inactive_no_flow_12_4_0_0: flow_12_4_0_0 - 1000 edge_12_4_0_0 <= 0
 inactive_no_flow_12_7_0_0: flow_12_7_0_0 - 1000 edge_12_7_0_0 <= 0
 inactive_no_flow_12_9_0_0: flow_12_9_0_0 - 1000 edge_12_9_0_0 <= 0
 inactive_no_flow_12_11_0_0: flow_12_11_0_0 - 1000 edge_12_11_0_0 <= 0
 inactive_no_flow_12_15_0_0: flow_12_15_0_0 - 1000 edge_12_15_0_0 <= 0
 inactive_no_flow_12_16_0_0: flow_12_16_0_0 - 1000 edge_12_16_0_0 <= 0
 inactive_no_flow_14_3_0_0: flow_14_3_0_0 - 1000 edge_14_3_0_0 <= 0
 inactive_no_flow_14_7_0_0: flow_14_7_0_0 - 1000 edge_14_7_0_0 <= 0
 inactive_no_flow_14_9_0_0: flow_14_9_0_0 - 1000 edge_14_9_0_0 <= 0
 inactive_no_flow_14_15_0_0: flow_14_15_0_0 - 1000 edge_14_15_0_0 <= 0
 inactive_no_flow_14_16_0_0: flow_14_16_0_0 - 1000 edge_14_16_0_0 <= 0
 inactive_no_flow_15_2_0_0: flow_15_2_0_0 - 1000 edge_15_2_0_0 <= 0
 inactive_no_flow_15_3_0_0: flow_15_3_0_0 - 1000 edge_15_3_0_0 <= 0
 inactive_no_flow_15_4_0_0: flow_15_4_0_0 - 1000 edge_15_4_0_0 <= 0
 inactive_no_flow_15_7_0_0: flow_15_7_0_0 - 1000 edge_15_7_0_0 <= 0
 inactive_no_flow_15_9_0_0: flow_15_9_0_0 - 1000 edge_15_9_0_0 <= 0
 inactive_no_flow_15_11_0_0: flow_15_11_0_0 - 1000 edge_15_11_0_0 <= 0
 inactive_no_flow_15_12_0_0: flow_15_12_0_0 - 1000 edge_15_12_0_0 <= 0
 inactive_no_flow_15_14_0_0: flow_15_14_0_0 - 1000 edge_15_14_0_0 <= 0
 inactive_no_flow_15_16_0_0: flow_15_16_0_0 - 1000 edge_15_16_0_0 <= 0
 inactive_no_flow_16_9_0_0: flow_16_9_0_0 - 1000 edge_16_9_0_0 <= 0
 inactive_no_flow_16_12_0_0: flow_16_12_0_0 - 1000 edge_16_12_0_0 <= 0
 inactive_no_flow_16_14_0_0: flow_16_14_0_0 - 1000 edge_16_14_0_0 <= 0
 inactive_no_flow_16_15_0_0: flow_16_15_0_0 - 1000 edge_16_15_0_0 <= 0
Bounds
Binaries
 edge_0_1_0_0 edge_0_2_0_0 edge_0_3_0_0 edge_0_4_0_0 edge_0_7_0_0
 edge_0_9_0_0 edge_0_12_0_0 edge_0_14_0_0 edge_0_15_0_0 edge_0_16_0_0
 edge_1_2_0_0 edge_1_3_0_0 edge_1_4_0_0 edge_1_7_0_0 edge_1_9_0_0
 edge_1_11_0_0 edge_1_12_0_0 edge_1_16_0_0 edge_2_1_0_0 edge_2_3_0_0
 edge_2_4_0_0 edge_2_7_0_0 edge_2_9_0_0 edge_2_11_0_0 edge_2_12_0_0
 edge_2_15_0_0 edge_2_16_0_0 edge_3_1_0_0 edge_3_2_0_0 edge_3_4_0_0
 edge_3_7_0_0 edge_3_8_0_0 edge_3_9_0_0 edge_3_11_0_0 edge_3_12_0_0
 edge_3_14_0_0 edge_3_15_0_0 edge_3_16_0_0 edge_4_1_0_0 edge_4_3_0_0
 edge_4_7_0_0 edge_7_1_0_0 edge_7_2_0_0 edge_7_3_0_0 edge_7_4_0_0
 edge_7_8_0_0 edge_7_9_0_0 edge_7_11_0_0 edge_7_12_0_0 edge_7_14_0_0
 edge_7_15_0_0 edge_7_16_0_0 edge_8_3_0_0 edge_8_4_0_0 edge_8_7_0_0
 edge_8_9_0_0 edge_8_11_0_0 edge_8_12_0_0 edge_9_1_0_0 edge_9_2_0_0
 edge_9_3_0_0 edge_9_4_0_0 edge_9_7_0_0 edge_9_8_0_0 edge_9_9_0_0
 edge_9_11_0_0 edge_9_12_0_0 edge_9_14_0_0 edge_9_15_0_0 edge_9_16_0_0
 edge_11_2_0_0 edge_11_4_0_0 edge_11_9_0_0 edge_11_11_0_0 edge_11_12_0_0
 edge_11_16_0_0 edge_12_1_0_0 edge_12_2_0_0 edge_12_3_0_0 edge_12_4_0_0
 edge_12_7_0_0 edge_12_9_0_0 edge_12_11_0_0 edge_12_15_0_0 edge_12_16_0_0
 edge_14_3_0_0 edge_14_7_0_0 edge_14_9_0_0 edge_14_15_0_0 edge_14_16_0_0
 edge_15_2_0_0 edge_15_3_0_0 edge_15_4_0_0 edge_15_7_0_0 edge_15_9_0_0
 edge_15_11_0_0 edge_15_12_0_0 edge_15_14_0_0 edge_15_16_0_0 edge_16_9_0_0
 edge_16_12_0_0 edge_16_14_0_0 edge_16_15_0_0
End
